MARKOV
1044
 2 2 2 2 2 2 2 2 2 2 2 2 2 2 2 2 2 2 2 2 2 2 2 2 2 2 2 2 2 2 2 2 2 2 2 2 2 2 2 2 2 2 2 2 2 2 2 2 2 2 2 2 2 2 2 2 2 2 2 2 2 2 2 2 2 2 2 2 2 2 2 2 2 2 2 2 2 2 2 2 2 2 2 2 2 2 2 2 2 2 2 2 2 2 2 2 2 2 2 2 2 2 2 2 2 2 2 2 2 2 2 2 2 2 2 2 2 2 2 2 2 2 2 2 2 2 2 2 2 2 2 2 2 2 2 2 2 2 2 2 2 2 2 2 2 2 2 2 2 2 2 2 2 2 2 2 2 2 2 2 2 2 2 2 2 2 2 2 2 2 2 2 2 2 2 2 2 2 2 2 2 2 2 2 2 2 2 2 2 2 2 2 2 2 2 2 2 2 2 2 2 2 2 2 2 2 2 2 2 2 2 2 2 2 2 2 2 2 2 2 2 2 2 2 2 2 2 2 2 2 2 2 2 2 2 2 2 2 2 2 2 2 2 2 2 2 2 2 2 2 2 2 2 2 2 2 2 2 2 2 2 2 2 2 2 2 2 2 2 2 2 2 2 2 2 2 2 2 2 2 2 2 2 2 2 2 2 2 2 2 2 2 2 2 2 2 2 2 2 2 2 2 2 2 2 2 2 2 2 2 2 2 2 2 2 2 2 2 2 2 2 2 2 2 2 2 2 2 2 2 2 2 2 2 2 2 2 2 2 2 2 2 2 2 2 2 2 2 2 2 2 2 2 2 2 2 2 2 2 2 2 2 2 2 2 2 2 2 2 2 2 2 2 2 2 2 2 2 2 2 2 2 2 2 2 2 2 2 2 2 2 2 2 2 2 2 2 2 2 2 2 2 2 2 2 2 2 2 2 2 2 2 2 2 2 2 2 2 2 2 2 2 2 2 2 2 2 2 2 2 2 2 2 2 2 2 2 2 2 2 2 2 2 2 2 2 2 2 2 2 2 2 2 2 2 2 2 2 2 2 2 2 2 2 2 2 2 2 2 2 2 2 2 2 2 2 2 2 2 2 2 2 2 2 2 2 2 2 2 2 2 2 2 2 2 2 2 2 2 2 2 2 2 2 2 2 2 2 2 2 2 2 2 2 2 2 2 2 2 2 2 2 2 2 2 2 2 2 2 2 2 2 2 2 2 2 2 2 2 2 2 2 2 2 2 2 2 2 2 2 2 2 2 2 2 2 2 2 2 2 2 2 2 2 2 2 2 2 2 2 2 2 2 2 2 2 2 2 2 2 2 2 2 2 2 2 2 2 2 2 2 2 2 2 2 2 2 2 2 2 2 2 2 2 2 2 2 2 2 2 2 2 2 2 2 2 2 2 2 2 2 2 2 2 2 2 2 2 2 2 2 2 2 2 2 2 2 2 2 2 2 2 2 2 2 2 2 2 2 2 2 2 2 2 2 2 2 2 2 2 2 2 2 2 2 2 2 2 2 2 2 2 2 2 2 2 2 2 2 2 2 2 2 2 2 2 2 2 2 2 2 2 2 2 2 2 2 2 2 2 2 2 2 2 2 2 2 2 2 2 2 2 2 2 2 2 2 2 2 2 2 2 2 2 2 2 2 2 2 2 2 2 2 2 2 2 2 2 2 2 2 2 2 2 2 2 2 2 2 2 2 2 2 2 2 2 2 2 2 2 2 2 2 2 2 2 2 2 2 2 2 2 2 2 2 2 2 2 2 2 2 2 2 2 2 2 2 2 2 2 2 2 2 2 2 2 2 2 2 2 2 2 2 2 2 2 2 2 2 2 2 2 2 2 2 2 2 2 2 2 2 2 2 2 2 2 2 2 2 2 2 2 2 2 2 2 2 2 2 2 2 2 2 2 2 2 2 2 2 2 2 2 2 2 2 2 2 2 2 2 2 2 2 2 2 2 2 2 2 2 2 2 2 2 2 2 2 2 2 2 2 2 2 2 2 2 2 2 2 2 2 2 2 2 2 2 2 2 2 2 2 2 2 2 2 2 2 2 2 2 2 2 2 2 2 2 2 2 2 2 2 2 2 2 2 2 2 2 2 2 2 2 2 2 2 2 2 2 2 2 2 2 2 2 2 2 2 2 2 2 2 2 2 2 2 2 2 2 2 2 2 2 2 2 2 2 2 2 2 2 2 2 2 2 2 2 2 2 2 2 2 2 2 2 2 2 2 2 2 2 2 2 2 2 2 2 2 2 2 2 2 2 2 2 2 2 2 2 2 2 2 2 2 2 2 2 2 2 2 2 2 2 2 2 2 2 2 2 2 2 2 2 2 2 2 2 2 2 2 2 2 2 2 2
1055
3	70 104 1043 
3	114 1042 1043 
3	228 1041 1042 
3	264 1040 1041 
3	152 1039 1040 
3	32 1038 1039 
3	365 1037 1038 
3	329 1036 1037 
3	262 1035 1036 
3	351 1034 1035 
3	149 1033 1034 
3	287 1032 1033 
3	21 1031 1032 
3	172 1030 1031 
3	235 1029 1030 
3	268 1028 1029 
3	200 1027 1028 
1	1027 
3	166 276 1026 
3	130 1025 1026 
3	1 1024 1025 
3	284 1023 1024 
3	240 1022 1023 
3	337 1021 1022 
3	58 1020 1021 
3	164 1019 1020 
3	248 1018 1019 
3	54 1017 1018 
3	366 1016 1017 
3	10 1015 1016 
3	362 1014 1015 
3	326 1013 1014 
3	341 1012 1013 
3	9 1011 1012 
3	346 1010 1011 
3	111 1009 1010 
3	275 1008 1009 
3	227 1007 1008 
3	94 1006 1007 
3	15 1005 1006 
3	313 1004 1005 
3	272 1003 1004 
3	334 1002 1003 
3	22 1001 1002 
3	303 1000 1001 
3	258 999 1000 
3	343 998 999 
3	192 997 998 
3	96 996 997 
3	218 995 996 
3	354 994 995 
3	307 993 994 
3	146 992 993 
3	299 991 992 
3	120 990 991 
3	14 989 990 
3	202 988 989 
3	242 987 988 
3	191 986 987 
3	210 985 986 
3	322 984 985 
3	328 983 984 
3	127 982 983 
3	190 981 982 
3	283 980 981 
3	257 979 980 
3	312 978 979 
3	207 977 978 
3	128 976 977 
3	271 975 976 
3	131 974 975 
3	32 973 974 
3	38 972 973 
3	122 971 972 
3	132 970 971 
3	336 969 970 
3	205 968 969 
3	253 967 968 
3	217 966 967 
3	156 965 966 
3	237 964 965 
3	76 963 964 
3	355 962 963 
3	8 961 962 
3	314 960 961 
3	226 959 960 
3	250 958 959 
3	193 957 958 
3	211 956 957 
3	252 955 956 
3	361 954 955 
3	118 953 954 
3	186 952 953 
3	198 951 952 
3	81 950 951 
3	285 949 950 
3	278 948 949 
3	17 947 948 
3	11 946 947 
3	64 945 946 
3	154 944 945 
3	310 943 944 
3	150 942 943 
3	222 941 942 
3	221 940 941 
3	234 939 940 
3	74 938 939 
3	196 937 938 
1	937 
3	130 166 936 
3	284 935 936 
3	1 934 935 
3	240 933 934 
3	207 932 933 
3	58 931 932 
3	271 930 931 
3	248 929 930 
3	149 928 929 
3	132 927 928 
3	122 926 927 
3	10 925 926 
3	362 924 925 
3	336 923 924 
3	254 922 923 
3	41 921 922 
3	205 920 921 
3	172 919 920 
3	318 918 919 
3	99 917 918 
3	341 916 917 
3	253 915 916 
3	217 914 915 
3	346 913 914 
3	9 912 913 
3	90 911 912 
3	111 910 911 
3	237 909 910 
3	76 908 909 
3	232 907 908 
3	226 906 907 
3	313 905 906 
3	252 904 905 
3	334 903 904 
3	22 902 903 
3	303 901 902 
3	258 900 901 
3	333 899 900 
3	192 898 899 
3	186 897 898 
3	307 896 897 
3	120 895 896 
3	285 894 895 
3	278 893 894 
3	17 892 893 
3	11 891 892 
3	7 890 891 
3	64 889 890 
3	107 888 889 
3	315 887 888 
3	194 886 887 
3	210 885 886 
3	154 884 885 
3	322 883 884 
3	150 882 883 
3	221 881 882 
3	234 880 881 
3	289 879 880 
3	196 878 879 
1	878 
3	99 315 877 
3	271 876 877 
3	362 875 876 
1	875 
3	26 343 874 
3	97 873 874 
3	259 872 873 
3	136 871 872 
3	266 870 871 
3	78 869 870 
3	319 868 869 
3	13 867 868 
3	50 866 867 
3	96 865 866 
3	108 864 865 
3	286 863 864 
3	177 862 863 
3	356 861 862 
3	335 860 861 
3	245 859 860 
3	291 858 859 
3	296 857 858 
3	300 856 857 
3	251 855 856 
3	14 854 855 
3	331 853 854 
3	297 852 853 
3	125 851 852 
3	137 850 851 
3	188 849 850 
3	72 848 849 
3	256 847 848 
3	77 846 847 
3	45 845 846 
3	345 844 845 
3	314 843 844 
3	212 842 843 
3	15 841 842 
3	213 840 841 
3	224 839 840 
3	208 838 839 
1	838 
3	276 284 837 
3	83 836 837 
3	108 835 836 
3	324 834 835 
3	149 833 834 
3	54 832 833 
3	60 831 832 
3	362 830 831 
3	110 829 830 
3	341 828 829 
3	241 827 828 
3	199 826 827 
3	137 825 826 
3	45 824 825 
3	171 823 824 
3	158 822 823 
3	37 821 822 
3	277 820 821 
3	313 819 820 
3	334 818 819 
3	303 817 818 
3	258 816 817 
3	192 815 816 
3	333 814 815 
3	319 813 814 
3	96 812 813 
3	329 811 812 
3	307 810 811 
3	117 809 810 
3	146 808 809 
3	121 807 808 
3	315 806 807 
3	107 805 806 
3	69 804 805 
3	20 803 804 
3	127 802 803 
3	190 801 802 
3	308 800 801 
3	128 799 800 
3	323 798 799 
3	261 797 798 
3	51 796 797 
3	88 795 796 
3	271 794 795 
3	131 793 794 
3	357 792 793 
3	105 791 792 
3	92 790 791 
3	132 789 790 
3	61 788 789 
3	336 787 788 
3	172 786 787 
3	200 785 786 
3	330 784 785 
3	99 783 784 
3	101 782 783 
3	217 781 782 
3	90 780 781 
3	16 779 780 
3	173 778 779 
3	77 777 778 
3	76 776 777 
3	344 775 776 
3	302 774 775 
3	292 773 774 
3	250 772 773 
3	31 771 772 
3	73 770 771 
3	6 769 770 
3	252 768 769 
3	71 767 768 
3	187 766 767 
3	85 765 766 
3	259 764 765 
3	28 763 764 
3	118 762 763 
3	153 761 762 
3	296 760 761 
3	332 759 760 
3	278 758 759 
3	106 757 758 
3	11 756 757 
3	223 755 756 
3	80 754 755 
3	72 753 754 
3	220 752 753 
3	154 751 752 
3	150 750 751 
3	339 749 750 
3	124 748 749 
3	289 747 748 
3	246 746 747 
3	166 745 746 
3	170 744 745 
3	130 743 744 
3	70 742 743 
3	1 741 742 
3	240 740 741 
3	337 739 740 
3	58 738 739 
3	78 737 738 
3	50 736 737 
3	248 735 736 
3	335 734 735 
3	10 733 734 
3	287 732 733 
3	347 731 732 
3	41 730 731 
3	318 729 730 
3	9 728 729 
3	346 727 728 
3	219 726 727 
3	111 725 726 
3	275 724 725 
3	160 723 724 
3	321 722 723 
3	269 721 722 
3	327 720 721 
3	22 719 720 
3	84 718 719 
3	151 717 718 
3	263 716 717 
3	354 715 716 
3	231 714 715 
3	43 713 714 
3	167 712 713 
3	299 711 712 
3	120 710 711 
3	202 709 710 
3	268 708 709 
3	242 707 708 
3	194 706 707 
3	191 705 706 
3	210 704 705 
3	163 703 704 
3	98 702 703 
3	265 701 702 
3	322 700 701 
3	283 699 700 
3	148 698 699 
3	304 697 698 
3	312 696 697 
3	169 695 696 
3	207 694 695 
3	364 693 694 
3	280 692 693 
3	4 691 692 
3	32 690 691 
3	42 689 690 
3	38 688 689 
3	122 687 688 
3	254 686 687 
3	205 685 686 
3	331 684 685 
3	253 683 684 
3	23 682 683 
3	237 681 682 
3	355 680 681 
3	293 679 680 
3	232 678 679 
3	226 677 678 
3	193 676 677 
3	361 675 676 
3	186 674 675 
3	103 673 674 
3	66 672 673 
3	62 671 672 
3	59 670 671 
3	285 669 670 
3	19 668 669 
3	17 667 668 
3	7 666 667 
3	64 665 666 
3	34 664 665 
3	221 663 664 
3	234 662 663 
3	74 661 662 
3	196 660 661 
1	660 
3	130 276 659 
3	93 658 659 
3	179 657 658 
3	95 656 657 
3	143 655 656 
3	337 654 655 
3	58 653 654 
3	147 652 653 
3	78 651 652 
3	108 650 651 
3	68 649 650 
3	135 648 649 
3	255 647 648 
3	335 646 647 
3	248 645 646 
3	102 644 645 
3	54 643 644 
3	181 642 643 
3	10 641 642 
3	86 640 641 
3	233 639 640 
3	260 638 639 
3	204 637 638 
3	273 636 637 
3	168 635 636 
3	29 634 635 
3	274 633 634 
3	350 632 633 
3	104 631 632 
3	144 630 631 
3	5 629 630 
3	100 628 629 
3	199 627 628 
3	9 626 627 
3	358 625 626 
3	320 624 625 
3	338 623 624 
3	45 622 623 
3	79 621 622 
3	275 620 621 
3	142 619 620 
3	55 618 619 
3	40 617 618 
3	203 616 617 
3	56 615 616 
3	133 614 615 
3	197 613 614 
3	165 612 613 
3	3 611 612 
3	67 610 611 
3	352 609 610 
3	319 608 609 
3	96 607 608 
3	138 606 607 
3	218 605 606 
3	109 604 605 
3	263 603 604 
3	279 602 603 
3	82 601 602 
3	43 600 601 
3	299 599 600 
3	185 598 599 
3	46 597 598 
3	155 596 597 
3	242 595 596 
3	281 594 595 
3	180 593 594 
3	65 592 593 
3	119 591 592 
3	162 590 591 
3	36 589 590 
3	30 588 589 
3	75 587 588 
3	288 586 587 
3	215 585 586 
3	188 584 585 
3	87 583 584 
3	47 582 583 
3	316 581 582 
3	363 580 581 
3	283 579 580 
3	89 578 579 
3	175 577 578 
3	148 576 577 
3	140 575 576 
3	304 574 575 
3	290 573 574 
3	207 572 573 
3	128 571 572 
3	115 570 571 
3	305 569 570 
3	239 568 569 
3	261 567 568 
3	131 566 567 
3	32 565 566 
3	317 564 565 
3	48 563 564 
3	38 562 563 
3	189 561 562 
3	298 560 561 
3	205 559 560 
3	225 558 559 
3	267 557 558 
3	331 556 557 
3	325 555 556 
3	101 554 555 
3	113 553 554 
3	126 552 553 
3	247 551 552 
3	182 550 551 
3	53 549 550 
3	295 548 549 
3	270 547 548 
3	355 546 547 
3	18 545 546 
3	344 544 545 
3	52 543 544 
3	359 542 543 
3	306 541 542 
3	314 540 541 
3	230 539 540 
3	176 538 539 
3	193 537 538 
3	250 536 537 
3	31 535 536 
3	183 534 535 
3	195 533 534 
3	201 532 533 
3	139 531 532 
3	2 530 531 
3	311 529 530 
3	27 528 529 
3	159 527 528 
3	259 526 527 
3	63 525 526 
3	243 524 525 
3	12 523 524 
3	123 522 523 
3	66 521 522 
3	161 520 521 
3	153 519 520 
3	296 518 519 
3	348 517 518 
3	229 516 517 
3	360 515 516 
3	24 514 515 
3	49 513 514 
3	236 512 513 
3	278 511 512 
3	223 510 511 
3	216 509 510 
3	178 508 509 
3	33 507 508 
3	72 506 507 
3	35 505 506 
3	353 504 505 
3	116 503 504 
3	367 502 503 
3	134 501 502 
3	289 500 501 
3	74 499 500 
3	340 498 499 
3	342 497 498 
1	497 
3	130 312 496 
3	112 495 496 
3	364 494 495 
3	128 493 494 
3	78 492 493 
3	91 491 492 
3	108 490 491 
3	4 489 490 
3	131 488 489 
3	335 487 488 
3	10 486 487 
3	298 485 486 
3	57 484 485 
3	297 483 484 
3	331 482 483 
3	25 481 482 
3	101 480 481 
3	144 479 480 
3	209 478 479 
3	129 477 478 
3	141 476 477 
3	355 475 476 
3	77 474 475 
3	275 473 474 
3	45 472 473 
3	152 471 472 
3	292 470 471 
3	314 469 470 
3	2 468 469 
3	214 467 468 
3	187 466 467 
3	259 465 466 
3	333 464 465 
3	218 463 464 
3	151 462 463 
3	174 461 462 
3	206 460 461 
3	296 459 460 
3	39 458 459 
3	14 457 458 
3	106 456 457 
3	244 455 456 
3	235 454 455 
3	294 453 454 
3	72 452 453 
3	188 451 452 
3	184 450 451 
3	351 449 450 
3	0 448 449 
3	127 447 448 
3	208 446 447 
1	446 
3	44 282 445 
3	143 444 445 
3	159 443 444 
3	58 442 443 
3	259 441 442 
3	147 440 441 
3	249 439 440 
3	286 438 439 
3	218 437 438 
3	12 436 437 
3	135 435 436 
3	349 434 435 
3	145 433 434 
3	174 432 433 
3	10 431 432 
3	273 430 431 
3	106 429 430 
3	205 428 429 
3	46 427 428 
3	180 426 427 
3	309 425 426 
3	9 424 425 
3	157 423 424 
3	53 422 423 
3	209 421 422 
3	33 420 421 
3	215 419 420 
3	52 418 419 
3	301 417 418 
3	133 416 417 
3	250 415 416 
3	134 414 415 
3	208 413 414 
3	238 412 413 
1	412 
3	130 166 411 
3	1 410 411 
3	284 409 410 
3	240 408 409 
3	207 407 408 
3	58 406 407 
3	271 405 406 
3	248 404 405 
3	10 403 404 
3	122 402 403 
3	132 401 402 
3	362 400 401 
3	336 399 400 
3	205 398 399 
3	253 397 398 
3	341 396 397 
3	217 395 396 
3	9 394 395 
3	346 393 394 
3	111 392 393 
3	237 391 392 
3	76 390 391 
3	226 389 390 
3	313 388 389 
3	252 387 388 
3	334 386 387 
3	22 385 386 
3	303 384 385 
3	258 383 384 
3	186 382 383 
3	307 381 382 
3	285 380 381 
3	120 379 380 
3	278 378 379 
3	17 377 378 
3	11 376 377 
3	64 375 376 
3	210 374 375 
3	154 373 374 
3	322 372 373 
3	150 371 372 
3	221 370 371 
3	234 369 370 
3	196 368 369 
1	368 
1	93 
1	147 
1	83 
1	68 
1	324 
1	54 
1	181 
1	260 
1	326 
1	297 
1	350 
1	110 
1	100 
1	209 
1	320 
1	129 
1	45 
1	79 
1	158 
1	56 
1	212 
1	277 
1	213 
1	67 
1	272 
1	334 
1	192 
1	249 
1	319 
1	13 
1	279 
1	82 
1	235 
1	185 
1	155 
1	180 
1	107 
1	215 
1	20 
1	351 
1	328 
1	127 
1	190 
1	363 
1	128 
1	261 
1	88 
1	271 
1	132 
1	298 
1	336 
1	172 
1	267 
1	330 
1	200 
1	126 
1	217 
1	90 
1	16 
1	295 
1	76 
1	18 
1	52 
1	359 
1	8 
1	230 
1	31 
1	211 
1	73 
1	252 
1	26 
1	118 
1	174 
1	153 
1	296 
1	278 
1	80 
1	178 
1	220 
1	116 
1	367 
1	166 
1	70 
1	240 
1	95 
1	143 
1	337 
1	58 
1	136 
1	78 
1	164 
1	91 
1	50 
1	245 
1	366 
1	10 
1	233 
1	29 
1	41 
1	318 
1	57 
1	104 
1	25 
1	346 
1	219 
1	338 
1	55 
1	227 
1	40 
1	203 
1	15 
1	165 
1	160 
1	321 
1	218 
1	151 
1	263 
1	109 
1	145 
1	354 
1	231 
1	43 
1	120 
1	268 
1	244 
1	242 
1	119 
1	188 
1	210 
1	264 
1	87 
1	283 
1	89 
1	175 
1	148 
1	140 
1	312 
1	304 
1	169 
1	207 
1	97 
1	280 
1	115 
1	239 
1	4 
1	32 
1	42 
1	38 
1	122 
1	331 
1	113 
1	247 
1	23 
1	53 
1	156 
1	141 
1	270 
1	237 
1	355 
1	301 
1	152 
1	232 
1	226 
1	21 
1	139 
1	2 
1	27 
1	159 
1	114 
1	198 
1	103 
1	12 
1	81 
1	62 
1	161 
1	59 
1	348 
1	229 
1	24 
1	285 
1	236 
1	19 
1	7 
1	64 
1	216 
1	310 
1	34 
1	74 
1	196 
1	276 
1	284 
1	179 
1	266 
1	108 
1	286 
1	255 
1	262 
1	149 
1	60 
1	273 
1	362 
1	204 
1	168 
1	341 
1	5 
1	199 
1	241 
1	309 
1	137 
1	345 
1	171 
1	37 
1	133 
1	197 
1	313 
1	303 
1	258 
1	333 
1	96 
1	138 
1	329 
1	117 
1	307 
1	146 
1	14 
1	121 
1	65 
1	315 
1	30 
1	288 
1	69 
1	47 
1	316 
1	308 
1	257 
1	282 
1	305 
1	323 
1	51 
1	177 
1	357 
1	349 
1	131 
1	105 
1	48 
1	92 
1	300 
1	61 
1	225 
1	325 
1	101 
1	99 
1	182 
1	173 
1	77 
1	344 
1	302 
1	306 
1	292 
1	314 
1	250 
1	6 
1	224 
1	71 
1	311 
1	44 
1	187 
1	85 
1	259 
1	28 
1	63 
1	243 
1	291 
1	206 
1	332 
1	106 
1	49 
1	11 
1	223 
1	125 
1	72 
1	256 
1	184 
1	35 
1	353 
1	154 
1	150 
1	339 
1	124 
1	289 
1	246 
1	340 
1	130 
1	170 
1	1 
1	112 
1	135 
1	248 
1	335 
1	102 
1	86 
1	287 
1	347 
1	274 
1	144 
1	9 
1	358 
1	111 
1	275 
1	142 
1	365 
1	94 
1	3 
1	269 
1	214 
1	327 
1	22 
1	343 
1	84 
1	352 
1	39 
1	167 
1	299 
1	251 
1	202 
1	46 
1	281 
1	162 
1	36 
1	75 
1	194 
1	191 
1	163 
1	98 
1	265 
1	322 
1	238 
1	290 
1	364 
1	317 
1	189 
1	254 
1	205 
1	253 
1	157 
1	293 
1	176 
1	193 
1	183 
1	195 
1	201 
1	361 
1	186 
1	228 
1	66 
1	123 
1	356 
1	360 
1	17 
1	294 
1	33 
1	222 
1	0 
1	221 
1	134 
1	234 
1	208 
1	342 
0	

8
 1 0 0.1 0.9 0.5 0.5 0.05 0.95
8
 1 0 0 1 0.5 0 0.5 1
8
 1 0 0 1 0.5 0 0.5 1
8
 1 0 0 1 0.05 0 0.95 1
8
 1 0 0 1 0.5 0 0.5 1
8
 1 0 0 1 0.5 0 0.5 1
8
 1 0 0 1 0.2 0 0.8 1
8
 1 0 0 1 0.5 0 0.5 1
8
 1 0 0 1 0.5 0 0.5 1
8
 1 0 0 1 0.05 0 0.95 1
8
 1 0 0 1 0.01 0 0.99 1
8
 1 0 0 1 0.5 0 0.5 1
8
 1 0 0 1 0.3 0 0.7 1
8
 1 0 0 1 0.01 0 0.99 1
8
 1 0 0 1 0 0 1 1
8
 1 0 0 1 0.5 0 0.5 1
8
 1 0 0 1 0.2 0 0.8 1
2
 0.03 1
8
 1 0 0.9 0.1 0.05 0.95 0.045 0.955
8
 1 0 0 1 0.9 0 0.1 1
8
 1 0 0 1 0.05 0 0.95 1
8
 1 0 0 1 0.05 0 0.95 1
8
 1 0 0 1 0.05 0 0.95 1
8
 1 0 0 1 0.9 0 0.1 1
8
 1 0 0 1 0.05 0 0.95 1
8
 1 0 0 1 0.3 0 0.7 1
8
 1 0 0 1 0.1 0 0.9 1
8
 1 0 0 1 0.9 0 0.1 1
8
 1 0 0 1 0.3 0 0.7 1
8
 1 0 0 1 0.05 0 0.95 1
8
 1 0 0 1 0.05 0 0.95 1
8
 1 0 0 1 0.3 0 0.7 1
8
 1 0 0 1 0.05 0 0.95 1
8
 1 0 0 1 0.05 0 0.95 1
8
 1 0 0 1 0.05 0 0.95 1
8
 1 0 0 1 0.05 0 0.95 1
8
 1 0 0 1 0.5 0 0.5 1
8
 1 0 0 1 0.3 0 0.7 1
8
 1 0 0 1 0.5 0 0.5 1
8
 1 0 0 1 0.9 0 0.1 1
8
 1 0 0 1 0.05 0 0.95 1
8
 1 0 0 1 0.3 0 0.7 1
8
 1 0 0 1 0.05 0 0.95 1
8
 1 0 0 1 0.05 0 0.95 1
8
 1 0 0 1 0.05 0 0.95 1
8
 1 0 0 1 0.05 0 0.95 1
8
 1 0 0 1 0.5 0 0.5 1
8
 1 0 0 1 0.4 0 0.6 1
8
 1 0 0 1 0.9 0 0.1 1
8
 1 0 0 1 0.5 0 0.5 1
8
 1 0 0 1 0.7 0 0.3 1
8
 1 0 0 1 0.01 0 0.99 1
8
 1 0 0 1 0.9 0 0.1 1
8
 1 0 0 1 0.9 0 0.1 1
8
 1 0 0 1 0.05 0 0.95 1
8
 1 0 0 1 0.4 0 0.6 1
8
 1 0 0 1 0.9 0 0.1 1
8
 1 0 0 1 0.9 0 0.1 1
8
 1 0 0 1 0.75 0 0.25 1
8
 1 0 0 1 0.05 0 0.95 1
8
 1 0 0 1 0.05 0 0.95 1
8
 1 0 0 1 0.3 0 0.7 1
8
 1 0 0 1 0.9 0 0.1 1
8
 1 0 0 1 0.5 0 0.5 1
8
 1 0 0 1 0.9 0 0.1 1
8
 1 0 0 1 0.3 0 0.7 1
8
 1 0 0 1 0.5 0 0.5 1
8
 1 0 0 1 0.05 0 0.95 1
8
 1 0 0 1 0.9 0 0.1 1
8
 1 0 0 1 0.5 0 0.5 1
8
 1 0 0 1 0.9 0 0.1 1
8
 1 0 0 1 0.9 0 0.1 1
8
 1 0 0 1 0.9 0 0.1 1
8
 1 0 0 1 0.05 0 0.95 1
8
 1 0 0 1 0.05 0 0.95 1
8
 1 0 0 1 0.05 0 0.95 1
8
 1 0 0 1 0.05 0 0.95 1
8
 1 0 0 1 0.05 0 0.95 1
8
 1 0 0 1 0.05 0 0.95 1
8
 1 0 0 1 0.3 0 0.7 1
8
 1 0 0 1 0.05 0 0.95 1
8
 1 0 0 1 0.05 0 0.95 1
8
 1 0 0 1 0.9 0 0.1 1
8
 1 0 0 1 0.3 0 0.7 1
8
 1 0 0 1 0.5 0 0.5 1
8
 1 0 0 1 0.05 0 0.95 1
8
 1 0 0 1 0.1 0 0.9 1
8
 1 0 0 1 0.9 0 0.1 1
8
 1 0 0 1 0.89 0 0.11 1
8
 1 0 0 1 0.05 0 0.95 1
8
 1 0 0 1 0.9 0 0.1 1
8
 1 0 0 1 0.89 0 0.11 1
8
 1 0 0 1 0.05 0 0.95 1
8
 1 0 0 1 0.5 0 0.5 1
8
 1 0 0 1 0.09 0 0.91 1
8
 1 0 0 1 0.05 0 0.95 1
8
 1 0 0 1 0.02 0 0.98 1
8
 1 0 0 1 0.05 0 0.95 1
8
 1 0 0 1 0.2 0 0.8 1
8
 1 0 0 1 0.05 0 0.95 1
8
 1 0 0 1 0.05 0 0.95 1
8
 1 0 0 1 0.3 0 0.7 1
8
 1 0 0 1 0.05 0 0.95 1
8
 1 0 0 1 0.4 0 0.6 1
8
 1 0 0 1 0.05 0 0.95 1
8
 1 0 0 1 0.05 0 0.95 1
8
 1 0 0 1 0.9 0 0.1 1
8
 1 0 0 1 0.05 0 0.95 1
2
 0.03 1
8
 1 0 0 1 0 1 0 1
8
 1 0 0 1 0 0 1 1
8
 1 0 0 1 0 0 1 1
8
 1 0 0 1 0 0 1 1
8
 1 0 0 1 0 0 1 1
8
 1 0 0 1 0 0 1 1
8
 1 0 0 1 0 0 1 1
8
 1 0 0 1 0 0 1 1
8
 1 0 0 1 0 0 1 1
8
 1 0 0 1 0 0 1 1
8
 1 0 0 1 0 0 1 1
8
 1 0 0 1 0 0 1 1
8
 1 0 0 1 0 0 1 1
8
 1 0 0 1 0 0 1 1
8
 1 0 0 1 0 0 1 1
8
 1 0 0 1 0 0 1 1
8
 1 0 0 1 0 0 1 1
8
 1 0 0 1 0 0 1 1
8
 1 0 0 1 0 0 1 1
8
 1 0 0 1 0 0 1 1
8
 1 0 0 1 0 0 1 1
8
 1 0 0 1 0 0 1 1
8
 1 0 0 1 0 0 1 1
8
 1 0 0 1 0 0 1 1
8
 1 0 0 1 0 0 1 1
8
 1 0 0 1 0 0 1 1
8
 1 0 0 1 0 0 1 1
8
 1 0 0 1 0 0 1 1
8
 1 0 0 1 0 0 1 1
8
 1 0 0 1 0 0 1 1
8
 1 0 0 1 0 0 1 1
8
 1 0 0 1 0 0 1 1
8
 1 0 0 1 0 0 1 1
8
 1 0 0 1 0 0 1 1
8
 1 0 0 1 0 0 1 1
8
 1 0 0 1 0 0 1 1
8
 1 0 0 1 0 0 1 1
8
 1 0 0 1 0 0 1 1
8
 1 0 0 1 0 0 1 1
8
 1 0 0 1 0 0 1 1
8
 1 0 0 1 0 0 1 1
8
 1 0 0 1 0 0 1 1
8
 1 0 0 1 0 0 1 1
8
 1 0 0 1 0 0 1 1
8
 1 0 0 1 0 0 1 1
8
 1 0 0 1 0 0 1 1
8
 1 0 0 1 0 0 1 1
8
 1 0 0 1 0 0 1 1
8
 1 0 0 1 0 0 1 1
8
 1 0 0 1 0 0 1 1
8
 1 0 0 1 0 0 1 1
8
 1 0 0 1 0 0 1 1
8
 1 0 0 1 0 0 1 1
8
 1 0 0 1 0 0 1 1
8
 1 0 0 1 0 0 1 1
8
 1 0 0 1 0 0 1 1
8
 1 0 0 1 0 0 1 1
8
 1 0 0 1 0 0 1 1
8
 1 0 0 1 0 0 1 1
2
 0.03 1
8
 1 0 0 1 0 1 0 1
8
 1 0 0 1 0 0 1 1
8
 1 0 0 1 0 0 1 1
2
 0.03 1
8
 1 0 0.6 0.4 0.5 0.5 0.3 0.7
8
 1 0 0 1 0.6 0 0.4 1
8
 1 0 0 1 0.89 0 0.11 1
8
 1 0 0 1 0.5 0 0.5 1
8
 1 0 0 1 0.5 0 0.5 1
8
 1 0 0 1 0.4 0 0.6 1
8
 1 0 0 1 0.5 0 0.5 1
8
 1 0 0 1 0.2 0 0.8 1
8
 1 0 0 1 0.5 0 0.5 1
8
 1 0 0 1 0.01 0 0.99 1
8
 1 0 0 1 0.4 0 0.6 1
8
 1 0 0 1 0.05 0 0.95 1
8
 1 0 0 1 0.1 0 0.9 1
8
 1 0 0 1 0.2 0 0.8 1
8
 1 0 0 1 0.4 0 0.6 1
8
 1 0 0 1 0.89 0 0.11 1
8
 1 0 0 1 0.8 0 0.2 1
8
 1 0 0 1 0.4 0 0.6 1
8
 1 0 0 1 0.6 0 0.4 1
8
 1 0 0 1 0.5 0 0.5 1
8
 1 0 0 1 0.4 0 0.6 1
8
 1 0 0 1 0.4 0 0.6 1
8
 1 0 0 1 0.01 0 0.99 1
8
 1 0 0 1 0.5 0 0.5 1
8
 1 0 0 1 0 0 1 1
8
 1 0 0 1 0.5 0 0.5 1
8
 1 0 0 1 0.4 0 0.6 1
8
 1 0 0 1 0.5 0 0.5 1
8
 1 0 0 1 0.4 0 0.6 1
8
 1 0 0 1 0.4 0 0.6 1
8
 1 0 0 1 0.5 0 0.5 1
8
 1 0 0 1 0.5 0 0.5 1
8
 1 0 0 1 0.05 0 0.95 1
8
 1 0 0 1 0.1 0 0.9 1
8
 1 0 0 1 0.1 0 0.9 1
8
 1 0 0 1 0.05 0 0.95 1
8
 1 0 0 1 0.01 0 0.99 1
2
 0.03 1
8
 1 0 0 1 0.9 0.1 0 1
8
 1 0 0 1 0.2 0 0.8 1
8
 1 0 0 1 0.4 0 0.6 1
8
 1 0 0 1 0.5 0 0.5 1
8
 1 0 0 1 0 0 1 1
8
 1 0 0 1 0.9 0 0.1 1
8
 1 0 0 1 0.5 0 0.5 1
8
 1 0 0 1 0.89 0 0.11 1
8
 1 0 0 1 0.5 0 0.5 1
8
 1 0 0 1 0 0 1 1
8
 1 0 0 1 0.89 0 0.11 1
8
 1 0 0 1 0.5 0 0.5 1
8
 1 0 0 1 0.2 0 0.8 1
8
 1 0 0 1 0.4 0 0.6 1
8
 1 0 0 1 0.1 0 0.9 1
8
 1 0 0 1 0.5 0 0.5 1
8
 1 0 0 1 0.5 0 0.5 1
8
 1 0 0 1 0.1 0 0.9 1
8
 1 0 0 1 0 0 1 1
8
 1 0 0 1 0.5 0 0.5 1
8
 1 0 0 1 0.01 0 0.99 1
8
 1 0 0 1 0 0 1 1
8
 1 0 0 1 0 0 1 1
8
 1 0 0 1 0 0 1 1
8
 1 0 0 1 0.5 0 0.5 1
8
 1 0 0 1 0.9 0 0.1 1
8
 1 0 0 1 0.5 0 0.5 1
8
 1 0 0 1 0 0 1 1
8
 1 0 0 1 0.5 0 0.5 1
8
 1 0 0 1 0.9 0 0.1 1
8
 1 0 0 1 0.5 0 0.5 1
8
 1 0 0 1 0.1 0 0.9 1
8
 1 0 0 1 0 0 1 1
8
 1 0 0 1 0.1 0 0.9 1
8
 1 0 0 1 0.5 0 0.5 1
8
 1 0 0 1 0.9 0 0.1 1
8
 1 0 0 1 0.5 0 0.5 1
8
 1 0 0 1 0.5 0 0.5 1
8
 1 0 0 1 0.9 0 0.1 1
8
 1 0 0 1 0.09 0 0.91 1
8
 1 0 0 1 0.5 0 0.5 1
8
 1 0 0 1 0.1 0 0.9 1
8
 1 0 0 1 0.5 0 0.5 1
8
 1 0 0 1 0.5 0 0.5 1
8
 1 0 0 1 0.9 0 0.1 1
8
 1 0 0 1 0.09 0 0.91 1
8
 1 0 0 1 0.5 0 0.5 1
8
 1 0 0 1 0.5 0 0.5 1
8
 1 0 0 1 0 0 1 1
8
 1 0 0 1 0.5 0 0.5 1
8
 1 0 0 1 0 0 1 1
8
 1 0 0 1 0 0 1 1
8
 1 0 0 1 0.5 0 0.5 1
8
 1 0 0 1 0.1 0 0.9 1
8
 1 0 0 1 0.5 0 0.5 1
8
 1 0 0 1 0.57 0 0.43 1
8
 1 0 0 1 0 0 1 1
8
 1 0 0 1 0 0 1 1
8
 1 0 0 1 0.5 0 0.5 1
8
 1 0 0 1 0.5 0 0.5 1
8
 1 0 0 1 0.9 0 0.1 1
8
 1 0 0 1 0 0 1 1
8
 1 0 0 1 0.5 0 0.5 1
8
 1 0 0 1 0.1 0 0.9 1
8
 1 0 0 1 0.5 0 0.5 1
8
 1 0 0 1 0.1 0 0.9 1
8
 1 0 0 1 0.5 0 0.5 1
8
 1 0 0 1 0.4 0 0.6 1
8
 1 0 0 1 0.5 0 0.5 1
8
 1 0 0 1 0 0 1 1
8
 1 0 0 1 0.5 0 0.5 1
8
 1 0 0 1 0.9 0 0.1 1
8
 1 0 0 1 0.5 0 0.5 1
8
 1 0 0 1 0.89 0 0.11 1
8
 1 0 0 1 0.5 0 0.5 1
8
 1 0 0 1 0.5 0 0.5 1
8
 1 0 0 1 0.5 0 0.5 1
8
 1 0 0 1 0.4 0 0.6 1
8
 1 0 0 1 0.5 0 0.5 1
8
 1 0 0 1 0 0 1 1
8
 1 0 0 1 0.1 0 0.9 1
8
 1 0 0 1 0.6 0 0.4 1
8
 1 0 0 1 0.5 0 0.5 1
8
 1 0 0 1 0.1 0 0.9 1
8
 1 0 0 1 0.4 0 0.6 1
8
 1 0 0 1 0.5 0 0.5 1
8
 1 0 0 1 0 0 1 1
8
 1 0 0 1 0 0 1 1
8
 1 0 0 1 0.1 0 0.9 1
8
 1 0 0 1 0.59 0 0.41 1
8
 1 0 0 1 0 0 1 1
8
 1 0 0 1 0.4 0 0.6 1
8
 1 0 0 1 0 0 1 1
8
 1 0 0 1 0.5 0 0.5 1
8
 1 0 0 1 0.9 0 0.1 1
8
 1 0 0 1 0.5 0 0.5 1
8
 1 0 0 1 0 0 1 1
8
 1 0 0 1 0 0 1 1
8
 1 0 0 1 0.9 0 0.1 1
8
 1 0 0 1 0.6 0 0.4 1
8
 1 0 0 1 0.4 0 0.6 1
8
 1 0 0 1 0.5 0 0.5 1
8
 1 0 0 1 0.1 0 0.9 1
8
 1 0 0 1 0.4 0 0.6 1
8
 1 0 0 1 0 0 1 1
8
 1 0 0 1 0.5 0 0.5 1
8
 1 0 0 1 0.09 0 0.91 1
8
 1 0 0 1 0 0 1 1
8
 1 0 0 1 0 0 1 1
8
 1 0 0 1 0 0 1 1
8
 1 0 0 1 0 0 1 1
8
 1 0 0 1 0.89 0 0.11 1
8
 1 0 0 1 0 0 1 1
8
 1 0 0 1 0.5 0 0.5 1
8
 1 0 0 1 0.5 0 0.5 1
8
 1 0 0 1 0.5 0 0.5 1
8
 1 0 0 1 0.5 0 0.5 1
8
 1 0 0 1 0.5 0 0.5 1
8
 1 0 0 1 0 0 1 1
8
 1 0 0 1 0.5 0 0.5 1
8
 1 0 0 1 0.4 0 0.6 1
8
 1 0 0 1 0.5 0 0.5 1
8
 1 0 0 1 0.7 0 0.3 1
8
 1 0 0 1 0.5 0 0.5 1
8
 1 0 0 1 0.89 0 0.11 1
8
 1 0 0 1 0.5 0 0.5 1
8
 1 0 0 1 0.9 0 0.1 1
8
 1 0 0 1 0 0 1 1
8
 1 0 0 1 0.9 0 0.1 1
8
 1 0 0 1 0.5 0 0.5 1
8
 1 0 0 1 0.5 0 0.5 1
8
 1 0 0 1 0 0 1 1
8
 1 0 0 1 0.75 0 0.25 1
8
 1 0 0 1 0 0 1 1
8
 1 0 0 1 0.09 0 0.91 1
8
 1 0 0 1 0.5 0 0.5 1
8
 1 0 0 1 0.5 0 0.5 1
8
 1 0 0 1 0 0 1 1
8
 1 0 0 1 0.9 0 0.1 1
8
 1 0 0 1 0.7 0 0.3 1
8
 1 0 0 1 0.4 0 0.6 1
8
 1 0 0 1 0.5 0 0.5 1
8
 1 0 0 1 0.1 0 0.9 1
8
 1 0 0 1 0 0 1 1
8
 1 0 0 1 0.6 0 0.4 1
8
 1 0 0 1 0.5 0 0.5 1
8
 1 0 0 1 0.4 0 0.6 1
8
 1 0 0 1 0.9 0 0.1 1
8
 1 0 0 1 0.5 0 0.5 1
8
 1 0 0 1 0.9 0 0.1 1
8
 1 0 0 1 0 0 1 1
8
 1 0 0 1 0 0 1 1
8
 1 0 0 1 0 0 1 1
8
 1 0 0 1 0.4 0 0.6 1
8
 1 0 0 1 0 0 1 1
8
 1 0 0 1 0.09 0 0.91 1
8
 1 0 0 1 0 0 1 1
8
 1 0 0 1 0.9 0 0.1 1
8
 1 0 0 1 0.5 0 0.5 1
8
 1 0 0 1 0 0 1 1
8
 1 0 0 1 0 0 1 1
8
 1 0 0 1 0.9 0 0.1 1
8
 1 0 0 1 0.9 0 0.1 1
8
 1 0 0 1 0 0 1 1
8
 1 0 0 1 0.05 0 0.95 1
8
 1 0 0 1 0.5 0 0.5 1
8
 1 0 0 1 0.5 0 0.5 1
8
 1 0 0 1 0.5 0 0.5 1
8
 1 0 0 1 0 0 1 1
8
 1 0 0 1 0.5 0 0.5 1
8
 1 0 0 1 0 0 1 1
8
 1 0 0 1 0.1 0 0.9 1
8
 1 0 0 1 0 0 1 1
8
 1 0 0 1 0.5 0 0.5 1
8
 1 0 0 1 0 0 1 1
8
 1 0 0 1 0 0 1 1
8
 1 0 0 1 0.9 0 0.1 1
8
 1 0 0 1 0.01 0 0.99 1
2
 0.03 1
8
 1 0 0.9 0.1 0.9 0.1 0.81 0.19
8
 1 0 0 1 0 0 1 1
8
 1 0 0 1 0.3 0 0.7 1
8
 1 0 0 1 0.05 0 0.95 1
8
 1 0 0 1 0.5 0 0.5 1
8
 1 0 0 1 0.9 0 0.1 1
8
 1 0 0 1 0 0 1 1
8
 1 0 0 1 0.5 0 0.5 1
8
 1 0 0 1 0.5 0 0.5 1
8
 1 0 0 1 0.5 0 0.5 1
8
 1 0 0 1 0.89 0 0.11 1
8
 1 0 0 1 0.9 0 0.1 1
8
 1 0 0 1 0.9 0 0.1 1
8
 1 0 0 1 0.5 0 0.5 1
8
 1 0 0 1 0.9 0 0.1 1
8
 1 0 0 1 0.9 0 0.1 1
8
 1 0 0 1 0.9 0 0.1 1
8
 1 0 0 1 0 0 1 1
8
 1 0 0 1 0 0 1 1
8
 1 0 0 1 0.89 0 0.11 1
8
 1 0 0 1 0.9 0 0.1 1
8
 1 0 0 1 0.9 0 0.1 1
8
 1 0 0 1 0.5 0 0.5 1
8
 1 0 0 1 0.05 0 0.95 1
8
 1 0 0 1 0.89 0 0.11 1
8
 1 0 0 1 0.9 0 0.1 1
8
 1 0 0 1 0.4 0 0.6 1
8
 1 0 0 1 0.9 0 0.1 1
8
 1 0 0 1 0.9 0 0.1 1
8
 1 0 0 1 0.8 0 0.2 1
8
 1 0 0 1 0.9 0 0.1 1
8
 1 0 0 1 0.94 0 0.06 1
8
 1 0 0 1 0.5 0 0.5 1
8
 1 0 0 1 0 0 1 1
8
 1 0 0 1 0.89 0 0.11 1
8
 1 0 0 1 0.3 0 0.7 1
8
 1 0 0 1 0.02 0 0.98 1
8
 1 0 0 1 0.5 0 0.5 1
8
 1 0 0 1 0.9 0 0.1 1
8
 1 0 0 1 0.9 0 0.1 1
8
 1 0 0 1 0.3 0 0.7 1
8
 1 0 0 1 0.9 0 0.1 1
8
 1 0 0 1 0.9 0 0.1 1
8
 1 0 0 1 0.5 0 0.5 1
8
 1 0 0 1 0.3 0 0.7 1
8
 1 0 0 1 0.09 0 0.91 1
8
 1 0 0 1 0.3 0 0.7 1
8
 1 0 0 1 0.9 0 0.1 1
8
 1 0 0 1 0.9 0 0.1 1
8
 1 0 0 1 0.3 0 0.7 1
8
 1 0 0 1 0.94 0 0.06 1
8
 1 0 0 1 0.5 0 0.5 1
8
 1 0 0 1 0.9 0 0.1 1
8
 1 0 0 1 0.79 0 0.21 1
8
 1 0 0 1 0.5 0 0.5 1
8
 1 0 0 1 0.5 0 0.5 1
8
 1 0 0 1 0.5 0 0.5 1
8
 1 0 0 1 0.9 0 0.1 1
8
 1 0 0 1 0.01 0 0.99 1
8
 1 0 0 1 0.89 0 0.11 1
8
 1 0 0 1 0.8 0 0.2 1
8
 1 0 0 1 0.3 0 0.7 1
8
 1 0 0 1 0.89 0 0.11 1
8
 1 0 0 1 0.9 0 0.1 1
8
 1 0 0 1 0.9 0 0.1 1
8
 1 0 0 1 0.85 0 0.15 1
8
 1 0 0 1 0.89 0 0.11 1
8
 1 0 0 1 0.89 0 0.11 1
8
 1 0 0 1 0.8 0 0.2 1
8
 1 0 0 1 0.89 0 0.11 1
8
 1 0 0 1 0.3 0 0.7 1
8
 1 0 0 1 0.8 0 0.2 1
8
 1 0 0 1 0.9 0 0.1 1
8
 1 0 0 1 0.9 0 0.1 1
8
 1 0 0 1 0.5 0 0.5 1
8
 1 0 0 1 0.5 0 0.5 1
8
 1 0 0 1 0.9 0 0.1 1
8
 1 0 0 1 0.8 0 0.2 1
8
 1 0 0 1 0.01 0 0.99 1
8
 1 0 0 1 0.9 0 0.1 1
8
 1 0 0 1 0.9 0 0.1 1
8
 1 0 0 1 0.9 0 0.1 1
8
 1 0 0 1 0.8 0 0.2 1
8
 1 0 0 1 0.7 0 0.3 1
8
 1 0 0 1 0.2 0 0.8 1
8
 1 0 0 1 0.05 0 0.95 1
8
 1 0 0 1 0.8 0 0.2 1
8
 1 0 0 1 0.89 0 0.11 1
8
 1 0 0 1 0.9 0 0.1 1
8
 1 0 0 1 0.3 0 0.7 1
8
 1 0 0 1 0.9 0 0.1 1
8
 1 0 0 1 0.9 0 0.1 1
8
 1 0 0 1 0.5 0 0.5 1
8
 1 0 0 1 0.9 0 0.1 1
8
 1 0 0 1 0.5 0 0.5 1
8
 1 0 0 1 0 0 1 1
8
 1 0 0 1 0.4 0 0.6 1
8
 1 0 0 1 0.9 0 0.1 1
8
 1 0 0 1 0.3 0 0.7 1
8
 1 0 0 1 0.8 0 0.2 1
8
 1 0 0 1 0 0 1 1
8
 1 0 0 1 0.89 0 0.11 1
8
 1 0 0 1 0.3 0 0.7 1
8
 1 0 0 1 0.5 0 0.5 1
8
 1 0 0 1 0.8 0 0.2 1
8
 1 0 0 1 0.61 0 0.39 1
8
 1 0 0 1 0.86 0 0.14 1
8
 1 0 0 1 0.9 0 0.1 1
8
 1 0 0 1 0.94 0 0.06 1
8
 1 0 0 1 0.3 0 0.7 1
8
 1 0 0 1 0.01 0 0.99 1
8
 1 0 0 1 0.9 0 0.1 1
8
 1 0 0 1 0.9 0 0.1 1
8
 1 0 0 1 0.9 0 0.1 1
8
 1 0 0 1 0.9 0 0.1 1
8
 1 0 0 1 0.5 0 0.5 1
8
 1 0 0 1 0.1 0 0.9 1
8
 1 0 0 1 0.9 0 0.1 1
8
 1 0 0 1 0.9 0 0.1 1
8
 1 0 0 1 0.9 0 0.1 1
8
 1 0 0 1 0.9 0 0.1 1
8
 1 0 0 1 0 0 1 1
8
 1 0 0 1 0.9 0 0.1 1
8
 1 0 0 1 0.5 0 0.5 1
8
 1 0 0 1 0.5 0 0.5 1
8
 1 0 0 1 0.1 0 0.9 1
8
 1 0 0 1 0 0 1 1
8
 1 0 0 1 0 0 1 1
8
 1 0 0 1 0.3 0 0.7 1
8
 1 0 0 1 0.5 0 0.5 1
8
 1 0 0 1 0.2 0 0.8 1
8
 1 0 0 1 0.9 0 0.1 1
8
 1 0 0 1 0.5 0 0.5 1
8
 1 0 0 1 0.89 0 0.11 1
8
 1 0 0 1 0.8 0 0.2 1
8
 1 0 0 1 0.89 0 0.11 1
8
 1 0 0 1 0.89 0 0.11 1
8
 1 0 0 1 0.89 0 0.11 1
8
 1 0 0 1 0.5 0 0.5 1
8
 1 0 0 1 0.9 0 0.1 1
8
 1 0 0 1 0.5 0 0.5 1
8
 1 0 0 1 0.5 0 0.5 1
8
 1 0 0 1 0.3 0 0.7 1
8
 1 0 0 1 0.9 0 0.1 1
8
 1 0 0 1 0.8 0 0.2 1
8
 1 0 0 1 0.8 0 0.2 1
8
 1 0 0 1 0.5 0 0.5 1
8
 1 0 0 1 0.8 0 0.2 1
8
 1 0 0 1 0.01 0 0.99 1
8
 1 0 0 1 0.5 0 0.5 1
8
 1 0 0 1 0.9 0 0.1 1
8
 1 0 0 1 0 0 1 1
8
 1 0 0 1 0.3 0 0.7 1
8
 1 0 0 1 0.5 0 0.5 1
8
 1 0 0 1 0.4 0 0.6 1
8
 1 0 0 1 0.8 0 0.2 1
8
 1 0 0 1 0.9 0 0.1 1
8
 1 0 0 1 0.9 0 0.1 1
8
 1 0 0 1 0.89 0 0.11 1
8
 1 0 0 1 0.2 0 0.8 1
8
 1 0 0 1 0.9 0 0.1 1
8
 1 0 0 1 0.89 0 0.11 1
8
 1 0 0 1 0.94 0 0.06 1
2
 0.03 1
8
 1 0 0.5 0.5 0.2 0.8 0.1 0.9
8
 1 0 0 1 0.6 0 0.4 1
8
 1 0 0 1 0.4 0 0.6 1
8
 1 0 0 1 0.5 0 0.5 1
8
 1 0 0 1 0.4 0 0.6 1
8
 1 0 0 1 0.5 0 0.5 1
8
 1 0 0 1 0.4 0 0.6 1
8
 1 0 0 1 0.1 0 0.9 1
8
 1 0 0 1 0.5 0 0.5 1
8
 1 0 0 1 0.4 0 0.6 1
8
 1 0 0 1 0.7 0 0.3 1
8
 1 0 0 1 0.5 0 0.5 1
8
 1 0 0 1 0.2 0 0.8 1
8
 1 0 0 1 0.5 0 0.5 1
8
 1 0 0 1 0.4 0 0.6 1
8
 1 0 0 1 0.1 0 0.9 1
8
 1 0 0 1 0.75 0 0.25 1
8
 1 0 0 1 0.2 0 0.8 1
8
 1 0 0 1 0.1 0 0.9 1
8
 1 0 0 1 0.5 0 0.5 1
8
 1 0 0 1 0.5 0 0.5 1
8
 1 0 0 1 0.2 0 0.8 1
8
 1 0 0 1 0.9 0 0.1 1
8
 1 0 0 1 0.5 0 0.5 1
8
 1 0 0 1 0.4 0 0.6 1
8
 1 0 0 1 0.5 0 0.5 1
8
 1 0 0 1 0.2 0 0.8 1
8
 1 0 0 1 0.5 0 0.5 1
8
 1 0 0 1 0.5 0 0.5 1
8
 1 0 0 1 0.5 0 0.5 1
8
 1 0 0 1 0.4 0 0.6 1
8
 1 0 0 1 0.89 0 0.11 1
8
 1 0 0 1 0.5 0 0.5 1
8
 1 0 0 1 0.5 0 0.5 1
8
 1 0 0 1 0.9 0 0.1 1
8
 1 0 0 1 0.1 0 0.9 1
8
 1 0 0 1 0.1 0 0.9 1
8
 1 0 0 1 0.4 0 0.6 1
8
 1 0 0 1 0.2 0 0.8 1
8
 1 0 0 1 0.4 0 0.6 1
8
 1 0 0 1 0.5 0 0.5 1
8
 1 0 0 1 0.2 0 0.8 1
8
 1 0 0 1 0.2 0 0.8 1
8
 1 0 0 1 0.2 0 0.8 1
8
 1 0 0 1 0.4 0 0.6 1
8
 1 0 0 1 0.5 0 0.5 1
8
 1 0 0 1 0.1 0 0.9 1
8
 1 0 0 1 0.05 0 0.95 1
8
 1 0 0 1 0.6 0 0.4 1
8
 1 0 0 1 0.5 0 0.5 1
8
 1 0 0 1 0.5 0 0.5 1
2
 0.03 1
8
 1 0 0.2 0.8 0.5 0.5 0.1 0.9
8
 1 0 0 1 0.5 0 0.5 1
8
 1 0 0 1 0.5 0 0.5 1
8
 1 0 0 1 0.01 0 0.99 1
8
 1 0 0 1 0.89 0 0.11 1
8
 1 0 0 1 0.5 0 0.5 1
8
 1 0 0 1 0.5 0 0.5 1
8
 1 0 0 1 0.1 0 0.9 1
8
 1 0 0 1 0.5 0 0.5 1
8
 1 0 0 1 0.89 0 0.11 1
8
 1 0 0 1 0.9 0 0.1 1
8
 1 0 0 1 0.5 0 0.5 1
8
 1 0 0 1 0 0 1 1
8
 1 0 0 1 0.5 0 0.5 1
8
 1 0 0 1 0.01 0 0.99 1
8
 1 0 0 1 0.5 0 0.5 1
8
 1 0 0 1 0.9 0 0.1 1
8
 1 0 0 1 0.01 0 0.99 1
8
 1 0 0 1 0.89 0 0.11 1
8
 1 0 0 1 0.89 0 0.11 1
8
 1 0 0 1 0.5 0 0.5 1
8
 1 0 0 1 0.01 0 0.99 1
8
 1 0 0 1 0.5 0 0.5 1
8
 1 0 0 1 0.01 0 0.99 1
8
 1 0 0 1 0.5 0 0.5 1
8
 1 0 0 1 0.3 0 0.7 1
8
 1 0 0 1 0.5 0 0.5 1
8
 1 0 0 1 0.1 0 0.9 1
8
 1 0 0 1 0.5 0 0.5 1
8
 1 0 0 1 0.09 0 0.91 1
8
 1 0 0 1 0.5 0 0.5 1
8
 1 0 0 1 0.89 0 0.11 1
8
 1 0 0 1 0.5 0 0.5 1
8
 1 0 0 1 0 0 1 1
2
 0.03 1
8
 1 0 0.05 0.95 0.05 0.95 0.0025 0.9975
8
 1 0 0 1 0.05 0 0.95 1
8
 1 0 0 1 0.05 0 0.95 1
8
 1 0 0 1 0.05 0 0.95 1
8
 1 0 0 1 0.05 0 0.95 1
8
 1 0 0 1 0.05 0 0.95 1
8
 1 0 0 1 0.05 0 0.95 1
8
 1 0 0 1 0.05 0 0.95 1
8
 1 0 0 1 0.05 0 0.95 1
8
 1 0 0 1 0.05 0 0.95 1
8
 1 0 0 1 0.05 0 0.95 1
8
 1 0 0 1 0.05 0 0.95 1
8
 1 0 0 1 0.05 0 0.95 1
8
 1 0 0 1 0.05 0 0.95 1
8
 1 0 0 1 0.05 0 0.95 1
8
 1 0 0 1 0.05 0 0.95 1
8
 1 0 0 1 0.05 0 0.95 1
8
 1 0 0 1 0.05 0 0.95 1
8
 1 0 0 1 0.05 0 0.95 1
8
 1 0 0 1 0.05 0 0.95 1
8
 1 0 0 1 0.05 0 0.95 1
8
 1 0 0 1 0.05 0 0.95 1
8
 1 0 0 1 0.05 0 0.95 1
8
 1 0 0 1 0.05 0 0.95 1
8
 1 0 0 1 0.05 0 0.95 1
8
 1 0 0 1 0.05 0 0.95 1
8
 1 0 0 1 0.05 0 0.95 1
8
 1 0 0 1 0.05 0 0.95 1
8
 1 0 0 1 0.05 0 0.95 1
8
 1 0 0 1 0.05 0 0.95 1
8
 1 0 0 1 0.05 0 0.95 1
8
 1 0 0 1 0.05 0 0.95 1
8
 1 0 0 1 0.05 0 0.95 1
8
 1 0 0 1 0.05 0 0.95 1
8
 1 0 0 1 0.05 0 0.95 1
8
 1 0 0 1 0.05 0 0.95 1
8
 1 0 0 1 0.05 0 0.95 1
8
 1 0 0 1 0.05 0 0.95 1
8
 1 0 0 1 0.05 0 0.95 1
8
 1 0 0 1 0.05 0 0.95 1
8
 1 0 0 1 0.05 0 0.95 1
8
 1 0 0 1 0.05 0 0.95 1
8
 1 0 0 1 0.05 0 0.95 1
8
 1 0 0 1 0.05 0 0.95 1
2
 0.03 1
2
 0.99995 5e-05
2
 0.9999 0.0001
2
 0.999995 5e-06
2
 0.9999 0.0001
2
 0.99999 1e-05
2
 0.99975 0.00025
2
 0.99998 2e-05
2
 0.999993 7e-06
2
 0.9999 0.0001
2
 0.9998 0.0002
2
 1 4e-08
2
 0.99999 1e-05
2
 0.999999 1.4e-06
2
 0.999998 2e-06
2
 0.99995 5e-05
2
 0.9999 0.0001
2
 0.9999 0.0001
2
 0.999977 2.342e-05
2
 0.99989 0.00011
2
 0.99998 2e-05
2
 0.99995 5e-05
2
 0.9999 0.0001
2
 0.99996 4e-05
2
 0.99998 2e-05
2
 0.9999 0.0001
2
 0.99998 2e-05
2
 0.99995 5e-05
2
 0.99992 8e-05
2
 0.99974 0.00026
2
 0.9999 0.0001
2
 1 1.1e-07
2
 0.99998 2e-05
2
 0.9996 0.0004
2
 0.99999 1e-05
2
 0.999999 1.26e-06
2
 0.99996 4e-05
2
 0.99998 2e-05
2
 0.9995 0.0005
2
 0.9999 0.0001
2
 0.9999 0.0001
2
 0.9991 0.0009
2
 0.99992 8e-05
2
 0.9999 0.0001
2
 0.99989 0.00011
2
 0.9996 0.0004
2
 0.99995 5e-05
2
 0.9995 0.0005
2
 0.99999 1e-05
2
 0.9999 0.0001
2
 0.999999 1e-06
2
 0.9999 0.0001
2
 0.9995 0.0005
2
 0.99999 1e-05
2
 0.9999 0.0001
2
 0.99995 5e-05
2
 0.99991 9e-05
2
 0.9996 0.0004
2
 0.99998 2e-05
2
 0.99999 1e-05
2
 0.99986 0.00014
2
 0.9999 0.0001
2
 0.99982 0.00018
2
 0.9999 0.0001
2
 0.99999 1e-05
2
 0.9997 0.0003
2
 0.99995 5e-05
2
 0.9991 0.0009
2
 0.99993 7e-05
2
 0.9998 0.0002
2
 0.9998 0.0002
2
 0.99998 2e-05
2
 0.9999 0.0001
2
 0.99996 4e-05
2
 0.9997 0.0003
2
 0.9999 0.0001
2
 0.99993 7e-05
2
 0.9999 0.0001
2
 0.99991 9e-05
2
 0.9999 0.0001
2
 1 1e-08
2
 1 4e-08
2
 0.9999 0.0001
2
 0.9999 0.0001
2
 0.9999 0.0001
2
 0.99999 1e-05
2
 0.9999 0.0001
2
 0.999977 2.291e-05
2
 0.9996 0.0004
2
 0.99994 6e-05
2
 0.996 0.004
2
 0.9991 0.0009
2
 0.999999 1e-06
2
 0.99989 0.00011
2
 0.9999 0.0001
2
 1 2e-07
2
 0.999 0.001
2
 0.995 0.005
2
 0.99998 2.003e-05
2
 0.997 0.003
2
 0.99987 0.00013
2
 0.9999 0.0001
2
 0.9997 0.0003
2
 0.9999 0.0001
2
 0.99995 5e-05
2
 0.99999 1e-05
2
 0.99995 5e-05
2
 1 2.8e-07
2
 0.999 0.001
2
 0.999991 8.59e-06
2
 0.99995 5e-05
2
 0.9985 0.0015
2
 0.999999 1e-06
2
 0.99995 5e-05
2
 0.9999 0.0001
2
 0.9999 0.0001
2
 0.999996 4e-06
2
 0.9995 0.0005
2
 0.9999 0.0001
2
 0.99999 1e-05
2
 1 1.6e-07
2
 0.9999 0.0001
2
 0.9999 0.0001
2
 0.9999 0.0001
2
 0.9999 0.0001
2
 0.99989 0.00011
2
 0.999969 3.12e-05
2
 0.999999 1e-06
2
 0.99975 0.00025
2
 0.9999 0.0001
2
 0.9999 0.0001
2
 1 1e-08
2
 0.99999 1e-05
2
 0.9995 0.0005
2
 1 1.4e-07
2
 0.9998 0.0002
2
 0.999953 4.733e-05
2
 0.99998 2e-05
2
 0.9999 0.0001
2
 0.9999 0.0001
2
 0.9999 0.0001
2
 0.99999 1e-05
2
 0.9995 0.0005
2
 0.99995 5e-05
2
 0.99994 6e-05
2
 0.99991 9e-05
2
 0.99991 9e-05
2
 0.9999 0.0001
2
 0.9999 0.0001
2
 0.99995 5e-05
2
 0.9995 0.0005
2
 1 2.9e-07
2
 1 6e-08
2
 0.99994 6e-05
2
 0.9998 0.0002
2
 0.999 0.001
2
 0.9979 0.0021
2
 0.999994 6e-06
2
 0.9999 0.0001
2
 0.9998 0.0002
2
 0.99999 1e-05
2
 0.999999 1e-06
2
 0.99997 3e-05
2
 0.99997 3e-05
2
 0.99995 5e-05
2
 0.99997 3e-05
2
 0.999999 1e-06
2
 1 1e-08
2
 0.99998 2e-05
2
 0.9997 0.0003
2
 0.9999 0.0001
2
 0.9996 0.0004
2
 0.9999 0.0001
2
 0.99995 5e-05
2
 0.9999 0.0001
2
 1 1e-08
2
 0.99997 3e-05
2
 0.99998 2e-05
2
 1 1e-07
2
 1 1e-07
2
 0.9999 0.0001
2
 0.99997 3e-05
2
 0.99999 1e-05
2
 0.99996 4e-05
2
 0.9999 0.0001
2
 0.999585 0.000415
2
 0.9995 0.0005
2
 0.9998 0.0002
2
 0.9999 0.0001
2
 0.99993 7e-05
2
 0.9995 0.0005
2
 0.99995 5e-05
2
 0.99997 3e-05
2
 0.9999 0.0001
2
 0.9999 0.0001
2
 0.9999 0.0001
2
 0.999999 8.1e-07
2
 0.9986 0.0014
2
 0.999 0.001
2
 0.99999 1e-05
2
 0.9981 0.0019
2
 0.99995 5e-05
2
 0.9999 0.0001
2
 0.9999 0.0001
2
 0.9999 0.0001
2
 0.99989 0.00011
2
 0.99975 0.00025
2
 0.9999 0.0001
2
 0.9995 0.0005
2
 0.9999 0.0001
2
 0.9995 0.0005
2
 0.999999 1e-06
2
 0.9999 0.0001
2
 0.9996 0.0004
2
 0.99994 6e-05
2
 0.9999 0.0001
2
 0.99999 1e-05
2
 0.9999 0.0001
2
 0.998 0.002
2
 0.999998 2e-06
2
 0.9999 0.0001
2
 0.99989 0.00011
2
 0.9999 0.0001
2
 0.99995 5e-05
2
 0.99996 4e-05
2
 0.99982 0.00018
2
 0.99981 0.00019
2
 0.9999 0.0001
2
 0.9999 0.0001
2
 1 1e-08
2
 1 1.7e-07
2
 0.9999 0.0001
2
 1 1.1e-07
2
 0.99997 3e-05
2
 0.99999 1e-05
2
 0.9999 0.0001
2
 0.9999 0.0001
2
 1 6e-08
2
 0.99996 4e-05
2
 0.9999 0.0001
2
 0.99988 0.00012
2
 0.99995 5e-05
2
 0.99991 9e-05
2
 0.999973 2.7e-05
2
 0.99999 1e-05
2
 0.9999 0.0001
2
 0.9999 0.0001
2
 0.9999 0.0001
2
 0.9991 0.0009
2
 0.9999 0.0001
2
 1 1e-08
2
 0.9999 0.0001
2
 0.99985 0.00015
2
 0.99998 2e-05
2
 0.9999 0.0001
2
 0.9998 0.0002
2
 0.9995 0.0005
2
 0.99999 1e-05
2
 0.999997 2.88e-06
2
 0.9995 0.0005
2
 0.99922 0.00078
2
 0.9998 0.0002
2
 0.99995 5e-05
2
 0.99996 4e-05
2
 0.9998 0.0002
2
 0.9999 0.0001
2
 1 5e-07
2
 0.9994 0.0006
2
 0.99999 1e-05
2
 0.9999 0.0001
2
 0.9995 0.0005
2
 0.99999 1e-05
2
 0.9999 0.0001
2
 0.9999 0.0001
2
 0.9998 0.0002
2
 0.99984 0.00016
2
 0.9996 0.0004
2
 0.999 0.001
2
 0.99997 3e-05
2
 0.999 0.001
2
 0.9997 0.0003
2
 0.996 0.004
2
 0.9999 0.0001
2
 0.9996 0.0004
2
 0.99996 4e-05
2
 1 4e-08
2
 0.9999 0.0001
2
 0.99998 2e-05
2
 0.99995 5e-05
2
 0.9965 0.0035
2
 0.9999 0.0001
2
 0.9928 0.0072
2
 0.9999 0.0001
2
 0.99985 0.00015
2
 0.99996 4e-05
2
 0.9999 0.0001
2
 0.9995 0.0005
2
 0.9985 0.0015
2
 0.99995 5e-05
2
 0.9999 0.0001
2
 1 1e-08
2
 0.999784 0.000216
2
 0.9988 0.0012
2
 0.99995 5e-05
2
 0.9995 0.0005
2
 0.999999 6.2e-07
2
 0.99995 5e-05
2
 0.9999 0.0001
2
 0.99998 2e-05
2
 1 1.2e-07
2
 0.99998 2e-05
2
 0.9995 0.0005
2
 0.9996 0.0004
2
 0.9997 0.0003
2
 0.99998 2e-05
2
 0.999997 2.82e-06
2
 0.99999 1e-05
2
 0.9999 0.0001
2
 0.9995 0.0005
2
 0.9999 0.0001
2
 1 2e-08
2
 0.9994 0.0006
2
 0.9999 0.0001
2
 0.999907 9.332e-05
2
 0.9999 0.0001
2
 0.9994 0.0006
2
 0.9999 0.0001
2
 0.999999 5.4e-07
2
 0.9999 0.0001
2
 0.99997 3e-05
2
 0.999999 1e-06
2
 0.99995 5e-05
2
 0.999992 8e-06
2
 0.99975 0.00025
2
 0.9999 0.0001
2
 0.99999 1e-05
2
 0.9999 0.0001
2
 0.9999 0.0001
2
 0.99999 1e-05
2
 0.9995 0.0005
2
 0.999 0.001
2
 0.99999 1e-05
2
 0.99997 3e-05
2
 0.9985 0.0015
2
 0.99995 5e-05
2
 0.9995 0.0005
2
 0.9999 0.0001
2
 0.99998 2e-05
2
 0.9999 0.0001
2
 0.99997 3e-05
2
 0.99994 6e-05
2
 0.99999 1e-05
2
 0.9995 0.0005
2
 0.9999 0.0001
2
 0.9995 0.0005
2
 0.999 0.001
2
 0.9999 0.0001
2
 0.9999 0.0001
2
 0.99989 0.00011
2
 0.9999 0.0001
2
 0.9995 0.0005
2
 0.9999 0.0001
2
 0.9994 0.0006
2
 0.99996 4e-05
2
 0.99997 3e-05
2
 0.9999 0.0001
2
 0.99998 2e-05
2
 0.99996 4e-05
2
 1 5e-07
1
 1

